p cnf 25 67
a 17 10 0
e 1 2 3 4 5 6 7 8 9 11 12 13 14 15 16 18 19 20 21 22 23 24 25 0
-2 3 -4 0
2 -3 -4 0
-2 -3 4 0
2 3 4 0
-2 -4 -5 0
2 4 -5 0
-2 4 5 0
2 -4 5 0
6 1 0
6 -5 0
-1 5 -6 0
-8 -7 0
-8 -3 0
7 3 8 0
-9 -10 -11 0
9 10 -11 0
-9 10 11 0
9 -10 11 0
-8 11 -12 0
8 -11 -12 0
-8 -11 12 0
8 11 12 0
4 13 -14 0
-4 -13 -14 0
4 -13 14 0
-4 13 14 0
-15 12 0
-15 -14 0
-12 14 15 0
17 16 0
17 9 0
-16 -9 -17 0
-18 -15 0
-18 17 0
15 -17 18 0
6 18 -19 0
-6 -18 -19 0
6 -18 19 0
-6 18 19 0
-3 4 -20 0
3 -4 -20 0
-3 -4 20 0
3 4 20 0
21 -19 0
21 20 0
19 -20 -21 0
9 4 -22 0
-9 -4 -22 0
9 -4 22 0
-9 4 22 0
23 -16 0
23 7 0
16 -7 -23 0
22 -23 -24 0
-22 23 -24 0
22 23 24 0
-22 -23 24 0
-25 -21 0
-25 24 0
21 -24 25 0
9 -18 0
-13 -9 -15 14 0
-23 5 3 -13 -18 9 0
11 2 4 -12 -10 24 0
12 21 -7 -17 -18 -8 -11 0
3 11 17 -19 -2 0
25 0
